;; translated from ./ctigar/large_const.c.vmt
;; original benchmark available at: https://es-static.fbk.eu/people/griggio/ic3ia/index.html
;; author: Alberto Griggio <griggio@fbk.eu>
(set-logic HORN)
(declare-fun state (Bool Bool Bool Bool Bool Bool Int Int Int Int Int Int Int Int) Bool)
(assert (forall ((|.s.5| Bool) (|.s.4| Bool) (|.s.3| Bool) (|.s.2| Bool) (|.s.0| Bool) (|.s.1| Bool) (|.s.0.next| Bool) (|.s.1.next| Bool) (|.s.2.next| Bool) (|.s.3.next| Bool) (|.s.4.next| Bool) (|.s.5.next| Bool) (|main.i.next| Int) (|main.i| Int) (|main.c1.next| Int) (|main.c1| Int) (|main.j.next| Int) (|main.j| Int) (|main.k.next| Int) (|main.k| Int) (|main.c3.next| Int) (|main.c3| Int) (|main.c2.next| Int) (|main.c2| Int) (|main.v.next| Int) (|main.v| Int) (|main.n.next| Int) (|main.n| Int) (|.inputVar.0| Int)) (=> (let ((.def_23 (not .s.5)))
(let ((.def_20 (not .s.4)))
(let ((.def_17 (not .s.3)))
(let ((.def_14 (not .s.2)))
(let ((.def_10 (not .s.1)))
(let ((.def_12 (and .def_10 .s.0)))
(let ((.def_15 (and .def_12 .def_14)))
(let ((.def_18 (and .def_15 .def_17)))
(let ((.def_21 (and .def_18 .def_20)))
(let ((.def_24 (and .def_21 .def_23)))
.def_24)))))))))) (state |.s.1| |.s.0| |.s.2| |.s.3| |.s.4| |.s.5| |main.n| |main.v| |main.c2| |main.c3| |main.k| |main.j| |main.c1| |main.i|))))
(assert (forall ((|.s.5| Bool) (|.s.4| Bool) (|.s.3| Bool) (|.s.2| Bool) (|.s.0| Bool) (|.s.1| Bool) (|.s.0.next| Bool) (|.s.1.next| Bool) (|.s.2.next| Bool) (|.s.3.next| Bool) (|.s.4.next| Bool) (|.s.5.next| Bool) (|main.i.next| Int) (|main.i| Int) (|main.c1.next| Int) (|main.c1| Int) (|main.j.next| Int) (|main.j| Int) (|main.k.next| Int) (|main.k| Int) (|main.c3.next| Int) (|main.c3| Int) (|main.c2.next| Int) (|main.c2| Int) (|main.v.next| Int) (|main.v| Int) (|main.n.next| Int) (|main.n| Int) (|.inputVar.0| Int)) (=> (and (state |.s.1| |.s.0| |.s.2| |.s.3| |.s.4| |.s.5| |main.n| |main.v| |main.c2| |main.c3| |main.k| |main.j| |main.c1| |main.i|) (let ((.def_77 (not .s.0)))
(let ((.def_10 (not .s.1)))
(let ((.def_78 (and .def_10 .def_77)))
(let ((.def_14 (not .s.2)))
(let ((.def_79 (and .def_14 .def_78)))
(let ((.def_17 (not .s.3)))
(let ((.def_80 (and .def_17 .def_79)))
(let ((.def_20 (not .s.4)))
(let ((.def_81 (and .def_20 .def_80)))
(let ((.def_23 (not .s.5)))
(let ((.def_696 (and .def_23 .def_81)))
(let ((.def_697 (not .def_696)))
(let ((.def_62 (not .s.0.next)))
(let ((.def_60 (not .s.1.next)))
(let ((.def_63 (and .def_60 .def_62)))
(let ((.def_58 (not .s.2.next)))
(let ((.def_64 (and .def_58 .def_63)))
(let ((.def_56 (not .s.3.next)))
(let ((.def_65 (and .def_56 .def_64)))
(let ((.def_54 (not .s.4.next)))
(let ((.def_66 (and .def_54 .def_65)))
(let ((.def_52 (not .s.5.next)))
(let ((.def_67 (and .def_52 .def_66)))
(let ((.def_50 (= main.i main.i.next)))
(let ((.def_68 (and .def_50 .def_67)))
(let ((.def_47 (= main.c1 main.c1.next)))
(let ((.def_69 (and .def_47 .def_68)))
(let ((.def_44 (= main.j main.j.next)))
(let ((.def_70 (and .def_44 .def_69)))
(let ((.def_41 (= main.k main.k.next)))
(let ((.def_71 (and .def_41 .def_70)))
(let ((.def_38 (= main.c3 main.c3.next)))
(let ((.def_72 (and .def_38 .def_71)))
(let ((.def_35 (= main.c2 main.c2.next)))
(let ((.def_73 (and .def_35 .def_72)))
(let ((.def_32 (= main.v main.v.next)))
(let ((.def_74 (and .def_32 .def_73)))
(let ((.def_29 (= main.n main.n.next)))
(let ((.def_75 (and .def_29 .def_74)))
(let ((.def_698 (or .def_75 .def_697)))
(let ((.def_100 (and .s.1.next .def_62)))
(let ((.def_101 (and .def_58 .def_100)))
(let ((.def_408 (and .def_56 .def_101)))
(let ((.def_685 (and .def_54 .def_408)))
(let ((.def_686 (and .def_52 .def_685)))
(let ((.def_684 (= main.c1.next 4000)))
(let ((.def_687 (and .def_684 .def_686)))
(let ((.def_688 (and .def_50 .def_687)))
(let ((.def_689 (and .def_44 .def_688)))
(let ((.def_690 (and .def_41 .def_689)))
(let ((.def_691 (and .def_38 .def_690)))
(let ((.def_692 (and .def_35 .def_691)))
(let ((.def_693 (and .def_32 .def_692)))
(let ((.def_694 (and .def_29 .def_693)))
(let ((.def_12 (and .def_10 .s.0)))
(let ((.def_15 (and .def_12 .def_14)))
(let ((.def_18 (and .def_15 .def_17)))
(let ((.def_21 (and .def_18 .def_20)))
(let ((.def_24 (and .def_21 .def_23)))
(let ((.def_682 (not .def_24)))
(let ((.def_695 (or .def_682 .def_694)))
(let ((.def_699 (and .def_695 .def_698)))
(let ((.def_125 (and .s.1.next .s.0.next)))
(let ((.def_212 (and .def_58 .def_125)))
(let ((.def_294 (and .def_56 .def_212)))
(let ((.def_671 (and .def_54 .def_294)))
(let ((.def_672 (and .def_52 .def_671)))
(let ((.def_670 (= main.c2.next 2000)))
(let ((.def_673 (and .def_670 .def_672)))
(let ((.def_674 (and .def_50 .def_673)))
(let ((.def_675 (and .def_47 .def_674)))
(let ((.def_676 (and .def_44 .def_675)))
(let ((.def_677 (and .def_41 .def_676)))
(let ((.def_678 (and .def_38 .def_677)))
(let ((.def_679 (and .def_32 .def_678)))
(let ((.def_680 (and .def_29 .def_679)))
(let ((.def_114 (and .s.1 .def_77)))
(let ((.def_204 (and .def_14 .def_114)))
(let ((.def_371 (and .def_17 .def_204)))
(let ((.def_666 (and .def_20 .def_371)))
(let ((.def_667 (and .def_23 .def_666)))
(let ((.def_668 (not .def_667)))
(let ((.def_681 (or .def_668 .def_680)))
(let ((.def_700 (and .def_681 .def_699)))
(let ((.def_188 (and .s.2.next .def_63)))
(let ((.def_394 (and .def_56 .def_188)))
(let ((.def_655 (and .def_54 .def_394)))
(let ((.def_656 (and .def_52 .def_655)))
(let ((.def_654 (= main.c3.next 10000)))
(let ((.def_657 (and .def_654 .def_656)))
(let ((.def_658 (and .def_50 .def_657)))
(let ((.def_659 (and .def_47 .def_658)))
(let ((.def_660 (and .def_44 .def_659)))
(let ((.def_661 (and .def_41 .def_660)))
(let ((.def_662 (and .def_35 .def_661)))
(let ((.def_663 (and .def_32 .def_662)))
(let ((.def_664 (and .def_29 .def_663)))
(let ((.def_94 (and .s.1 .s.0)))
(let ((.def_179 (and .def_14 .def_94)))
(let ((.def_356 (and .def_17 .def_179)))
(let ((.def_650 (and .def_20 .def_356)))
(let ((.def_651 (and .def_23 .def_650)))
(let ((.def_652 (not .def_651)))
(let ((.def_665 (or .def_652 .def_664)))
(let ((.def_701 (and .def_665 .def_700)))
(let ((.def_165 (and .def_60 .s.0.next)))
(let ((.def_166 (and .s.2.next .def_165)))
(let ((.def_344 (and .def_56 .def_166)))
(let ((.def_639 (and .def_54 .def_344)))
(let ((.def_640 (and .def_52 .def_639)))
(let ((.def_641 (and .def_50 .def_640)))
(let ((.def_642 (and .def_47 .def_641)))
(let ((.def_643 (and .def_44 .def_642)))
(let ((.def_644 (and .def_41 .def_643)))
(let ((.def_645 (and .def_38 .def_644)))
(let ((.def_646 (and .def_35 .def_645)))
(let ((.def_647 (and .def_32 .def_646)))
(let ((.def_648 (and .def_29 .def_647)))
(let ((.def_622 (<= 10 main.n)))
(let ((.def_160 (and .s.2 .def_78)))
(let ((.def_323 (and .def_17 .def_160)))
(let ((.def_619 (and .def_20 .def_323)))
(let ((.def_620 (and .def_23 .def_619)))
(let ((.def_637 (and .def_620 .def_622)))
(let ((.def_638 (not .def_637)))
(let ((.def_649 (or .def_638 .def_648)))
(let ((.def_702 (and .def_649 .def_701)))
(let ((.def_147 (and .s.2.next .def_100)))
(let ((.def_258 (and .def_56 .def_147)))
(let ((.def_626 (and .def_54 .def_258)))
(let ((.def_627 (and .def_52 .def_626)))
(let ((.def_628 (and .def_50 .def_627)))
(let ((.def_629 (and .def_47 .def_628)))
(let ((.def_630 (and .def_44 .def_629)))
(let ((.def_631 (and .def_41 .def_630)))
(let ((.def_632 (and .def_38 .def_631)))
(let ((.def_633 (and .def_35 .def_632)))
(let ((.def_634 (and .def_32 .def_633)))
(let ((.def_635 (and .def_29 .def_634)))
(let ((.def_623 (not .def_622)))
(let ((.def_624 (and .def_620 .def_623)))
(let ((.def_625 (not .def_624)))
(let ((.def_636 (or .def_625 .def_635)))
(let ((.def_703 (and .def_636 .def_702)))
(let ((.def_139 (and .def_12 .s.2)))
(let ((.def_306 (and .def_17 .def_139)))
(let ((.def_615 (and .def_20 .def_306)))
(let ((.def_616 (and .def_23 .def_615)))
(let ((.def_617 (not .def_616)))
(let ((.def_618 (or .def_75 .def_617)))
(let ((.def_704 (and .def_618 .def_703)))
(let ((.def_278 (and .s.3.next .def_64)))
(let ((.def_604 (and .def_54 .def_278)))
(let ((.def_605 (and .def_52 .def_604)))
(let ((.def_606 (and .def_50 .def_605)))
(let ((.def_607 (and .def_47 .def_606)))
(let ((.def_608 (and .def_44 .def_607)))
(let ((.def_609 (and .def_41 .def_608)))
(let ((.def_610 (and .def_38 .def_609)))
(let ((.def_611 (and .def_35 .def_610)))
(let ((.def_612 (and .def_32 .def_611)))
(let ((.def_613 (and .def_29 .def_612)))
(let ((.def_587 (<= 0 main.n)))
(let ((.def_115 (and .s.2 .def_114)))
(let ((.def_290 (and .def_17 .def_115)))
(let ((.def_585 (and .def_20 .def_290)))
(let ((.def_586 (and .def_23 .def_585)))
(let ((.def_602 (and .def_586 .def_587)))
(let ((.def_603 (not .def_602)))
(let ((.def_614 (or .def_603 .def_613)))
(let ((.def_705 (and .def_614 .def_704)))
(let ((.def_126 (and .s.2.next .def_125)))
(let ((.def_330 (and .def_56 .def_126)))
(let ((.def_591 (and .def_54 .def_330)))
(let ((.def_592 (and .def_52 .def_591)))
(let ((.def_593 (and .def_50 .def_592)))
(let ((.def_594 (and .def_47 .def_593)))
(let ((.def_595 (and .def_44 .def_594)))
(let ((.def_596 (and .def_41 .def_595)))
(let ((.def_597 (and .def_38 .def_596)))
(let ((.def_598 (and .def_35 .def_597)))
(let ((.def_599 (and .def_32 .def_598)))
(let ((.def_600 (and .def_29 .def_599)))
(let ((.def_588 (not .def_587)))
(let ((.def_589 (and .def_586 .def_588)))
(let ((.def_590 (not .def_589)))
(let ((.def_601 (or .def_590 .def_600)))
(let ((.def_706 (and .def_601 .def_705)))
(let ((.def_95 (and .s.2 .def_94)))
(let ((.def_270 (and .def_17 .def_95)))
(let ((.def_581 (and .def_20 .def_270)))
(let ((.def_582 (and .def_23 .def_581)))
(let ((.def_583 (not .def_582)))
(let ((.def_584 (or .def_75 .def_583)))
(let ((.def_707 (and .def_584 .def_706)))
(let ((.def_227 (and .def_58 .def_165)))
(let ((.def_541 (and .s.3.next .def_227)))
(let ((.def_570 (and .def_54 .def_541)))
(let ((.def_571 (and .def_52 .def_570)))
(let ((.def_569 (= main.k.next 0)))
(let ((.def_572 (and .def_569 .def_571)))
(let ((.def_573 (and .def_50 .def_572)))
(let ((.def_574 (and .def_47 .def_573)))
(let ((.def_575 (and .def_44 .def_574)))
(let ((.def_576 (and .def_38 .def_575)))
(let ((.def_577 (and .def_35 .def_576)))
(let ((.def_578 (and .def_32 .def_577)))
(let ((.def_579 (and .def_29 .def_578)))
(let ((.def_254 (and .s.3 .def_79)))
(let ((.def_566 (and .def_20 .def_254)))
(let ((.def_567 (and .def_23 .def_566)))
(let ((.def_568 (not .def_567)))
(let ((.def_580 (or .def_568 .def_579)))
(let ((.def_708 (and .def_580 .def_707)))
(let ((.def_556 (= main.i.next 0)))
(let ((.def_102 (and .s.3.next .def_101)))
(let ((.def_360 (and .def_54 .def_102)))
(let ((.def_361 (and .def_52 .def_360)))
(let ((.def_557 (and .def_361 .def_556)))
(let ((.def_558 (and .def_47 .def_557)))
(let ((.def_559 (and .def_44 .def_558)))
(let ((.def_560 (and .def_41 .def_559)))
(let ((.def_561 (and .def_38 .def_560)))
(let ((.def_562 (and .def_35 .def_561)))
(let ((.def_563 (and .def_32 .def_562)))
(let ((.def_564 (and .def_29 .def_563)))
(let ((.def_240 (and .def_15 .s.3)))
(let ((.def_553 (and .def_20 .def_240)))
(let ((.def_554 (and .def_23 .def_553)))
(let ((.def_555 (not .def_554)))
(let ((.def_565 (or .def_555 .def_564)))
(let ((.def_709 (and .def_565 .def_708)))
(let ((.def_542 (and .s.4.next .def_541)))
(let ((.def_543 (and .def_52 .def_542)))
(let ((.def_544 (and .def_50 .def_543)))
(let ((.def_545 (and .def_47 .def_544)))
(let ((.def_546 (and .def_44 .def_545)))
(let ((.def_547 (and .def_41 .def_546)))
(let ((.def_548 (and .def_38 .def_547)))
(let ((.def_549 (and .def_35 .def_548)))
(let ((.def_550 (and .def_32 .def_549)))
(let ((.def_551 (and .def_29 .def_550)))
(let ((.def_524 (<= main.n main.i)))
(let ((.def_205 (and .s.3 .def_204)))
(let ((.def_522 (and .def_20 .def_205)))
(let ((.def_523 (and .def_23 .def_522)))
(let ((.def_539 (and .def_523 .def_524)))
(let ((.def_540 (not .def_539)))
(let ((.def_552 (or .def_540 .def_551)))
(let ((.def_710 (and .def_552 .def_709)))
(let ((.def_213 (and .s.3.next .def_212)))
(let ((.def_528 (and .def_54 .def_213)))
(let ((.def_529 (and .def_52 .def_528)))
(let ((.def_530 (and .def_50 .def_529)))
(let ((.def_531 (and .def_47 .def_530)))
(let ((.def_532 (and .def_44 .def_531)))
(let ((.def_533 (and .def_41 .def_532)))
(let ((.def_534 (and .def_38 .def_533)))
(let ((.def_535 (and .def_35 .def_534)))
(let ((.def_536 (and .def_32 .def_535)))
(let ((.def_537 (and .def_29 .def_536)))
(let ((.def_525 (not .def_524)))
(let ((.def_526 (and .def_523 .def_525)))
(let ((.def_527 (not .def_526)))
(let ((.def_538 (or .def_527 .def_537)))
(let ((.def_711 (and .def_538 .def_710)))
(let ((.def_189 (and .s.3.next .def_188)))
(let ((.def_511 (and .def_54 .def_189)))
(let ((.def_512 (and .def_52 .def_511)))
(let ((.def_508 (* (- 1) main.i.next)))
(let ((.def_509 (+ main.i .def_508)))
(let ((.def_510 (= .def_509 (- 1))))
(let ((.def_513 (and .def_510 .def_512)))
(let ((.def_514 (and .def_47 .def_513)))
(let ((.def_515 (and .def_44 .def_514)))
(let ((.def_516 (and .def_41 .def_515)))
(let ((.def_517 (and .def_38 .def_516)))
(let ((.def_518 (and .def_35 .def_517)))
(let ((.def_519 (and .def_32 .def_518)))
(let ((.def_520 (and .def_29 .def_519)))
(let ((.def_180 (and .s.3 .def_179)))
(let ((.def_505 (and .def_20 .def_180)))
(let ((.def_506 (and .def_23 .def_505)))
(let ((.def_507 (not .def_506)))
(let ((.def_521 (or .def_507 .def_520)))
(let ((.def_712 (and .def_521 .def_711)))
(let ((.def_167 (and .s.3.next .def_166)))
(let ((.def_494 (and .def_54 .def_167)))
(let ((.def_495 (and .def_52 .def_494)))
(let ((.def_493 (= main.v.next .inputVar.0)))
(let ((.def_496 (and .def_493 .def_495)))
(let ((.def_497 (and .def_50 .def_496)))
(let ((.def_498 (and .def_47 .def_497)))
(let ((.def_499 (and .def_44 .def_498)))
(let ((.def_500 (and .def_41 .def_499)))
(let ((.def_501 (and .def_38 .def_500)))
(let ((.def_502 (and .def_35 .def_501)))
(let ((.def_503 (and .def_29 .def_502)))
(let ((.def_161 (and .s.3 .def_160)))
(let ((.def_489 (and .def_20 .def_161)))
(let ((.def_490 (and .def_23 .def_489)))
(let ((.def_491 (not .def_490)))
(let ((.def_504 (or .def_491 .def_503)))
(let ((.def_713 (and .def_504 .def_712)))
(let ((.def_127 (and .s.3.next .def_126)))
(let ((.def_478 (and .def_54 .def_127)))
(let ((.def_479 (and .def_52 .def_478)))
(let ((.def_480 (and .def_50 .def_479)))
(let ((.def_481 (and .def_47 .def_480)))
(let ((.def_482 (and .def_44 .def_481)))
(let ((.def_483 (and .def_41 .def_482)))
(let ((.def_484 (and .def_38 .def_483)))
(let ((.def_485 (and .def_35 .def_484)))
(let ((.def_486 (and .def_32 .def_485)))
(let ((.def_487 (and .def_29 .def_486)))
(let ((.def_461 (<= 0 main.v)))
(let ((.def_140 (and .s.3 .def_139)))
(let ((.def_459 (and .def_20 .def_140)))
(let ((.def_460 (and .def_23 .def_459)))
(let ((.def_476 (and .def_460 .def_461)))
(let ((.def_477 (not .def_476)))
(let ((.def_488 (or .def_477 .def_487)))
(let ((.def_714 (and .def_488 .def_713)))
(let ((.def_148 (and .s.3.next .def_147)))
(let ((.def_465 (and .def_54 .def_148)))
(let ((.def_466 (and .def_52 .def_465)))
(let ((.def_467 (and .def_50 .def_466)))
(let ((.def_468 (and .def_47 .def_467)))
(let ((.def_469 (and .def_44 .def_468)))
(let ((.def_470 (and .def_41 .def_469)))
(let ((.def_471 (and .def_38 .def_470)))
(let ((.def_472 (and .def_35 .def_471)))
(let ((.def_473 (and .def_32 .def_472)))
(let ((.def_474 (and .def_29 .def_473)))
(let ((.def_462 (not .def_461)))
(let ((.def_463 (and .def_460 .def_462)))
(let ((.def_464 (not .def_463)))
(let ((.def_475 (or .def_464 .def_474)))
(let ((.def_715 (and .def_475 .def_714)))
(let ((.def_116 (and .s.3 .def_115)))
(let ((.def_455 (and .def_20 .def_116)))
(let ((.def_456 (and .def_23 .def_455)))
(let ((.def_457 (not .def_456)))
(let ((.def_458 (or .def_75 .def_457)))
(let ((.def_716 (and .def_458 .def_715)))
(let ((.def_228 (and .def_56 .def_227)))
(let ((.def_444 (and .s.4.next .def_228)))
(let ((.def_445 (and .def_52 .def_444)))
(let ((.def_446 (and .def_50 .def_445)))
(let ((.def_447 (and .def_47 .def_446)))
(let ((.def_448 (and .def_44 .def_447)))
(let ((.def_449 (and .def_41 .def_448)))
(let ((.def_450 (and .def_38 .def_449)))
(let ((.def_451 (and .def_35 .def_450)))
(let ((.def_452 (and .def_32 .def_451)))
(let ((.def_453 (and .def_29 .def_452)))
(let ((.def_427 (<= 2 main.v)))
(let ((.def_441 (not .def_427)))
(let ((.def_96 (and .s.3 .def_95)))
(let ((.def_424 (and .def_20 .def_96)))
(let ((.def_425 (and .def_23 .def_424)))
(let ((.def_442 (and .def_425 .def_441)))
(let ((.def_443 (not .def_442)))
(let ((.def_454 (or .def_443 .def_453)))
(let ((.def_717 (and .def_454 .def_716)))
(let ((.def_430 (and .s.4.next .def_65)))
(let ((.def_431 (and .def_52 .def_430)))
(let ((.def_432 (and .def_50 .def_431)))
(let ((.def_433 (and .def_47 .def_432)))
(let ((.def_434 (and .def_44 .def_433)))
(let ((.def_435 (and .def_41 .def_434)))
(let ((.def_436 (and .def_38 .def_435)))
(let ((.def_437 (and .def_35 .def_436)))
(let ((.def_438 (and .def_32 .def_437)))
(let ((.def_439 (and .def_29 .def_438)))
(let ((.def_428 (and .def_425 .def_427)))
(let ((.def_429 (not .def_428)))
(let ((.def_440 (or .def_429 .def_439)))
(let ((.def_718 (and .def_440 .def_717)))
(let ((.def_420 (and .s.4 .def_80)))
(let ((.def_421 (and .def_23 .def_420)))
(let ((.def_422 (not .def_421)))
(let ((.def_423 (or .def_75 .def_422)))
(let ((.def_719 (and .def_423 .def_718)))
(let ((.def_409 (and .s.4.next .def_408)))
(let ((.def_410 (and .def_52 .def_409)))
(let ((.def_411 (and .def_50 .def_410)))
(let ((.def_412 (and .def_47 .def_411)))
(let ((.def_413 (and .def_44 .def_412)))
(let ((.def_414 (and .def_41 .def_413)))
(let ((.def_415 (and .def_38 .def_414)))
(let ((.def_416 (and .def_35 .def_415)))
(let ((.def_417 (and .def_32 .def_416)))
(let ((.def_418 (and .def_29 .def_417)))
(let ((.def_390 (= main.v 0)))
(let ((.def_388 (and .def_18 .s.4)))
(let ((.def_389 (and .def_23 .def_388)))
(let ((.def_406 (and .def_389 .def_390)))
(let ((.def_407 (not .def_406)))
(let ((.def_419 (or .def_407 .def_418)))
(let ((.def_720 (and .def_419 .def_719)))
(let ((.def_395 (and .s.4.next .def_394)))
(let ((.def_396 (and .def_52 .def_395)))
(let ((.def_397 (and .def_50 .def_396)))
(let ((.def_398 (and .def_47 .def_397)))
(let ((.def_399 (and .def_44 .def_398)))
(let ((.def_400 (and .def_41 .def_399)))
(let ((.def_401 (and .def_38 .def_400)))
(let ((.def_402 (and .def_35 .def_401)))
(let ((.def_403 (and .def_32 .def_402)))
(let ((.def_404 (and .def_29 .def_403)))
(let ((.def_391 (not .def_390)))
(let ((.def_392 (and .def_389 .def_391)))
(let ((.def_393 (not .def_392)))
(let ((.def_405 (or .def_393 .def_404)))
(let ((.def_721 (and .def_405 .def_720)))
(let ((.def_122 (* (- 1) main.k.next)))
(let ((.def_376 (+ .def_122 main.c1)))
(let ((.def_377 (+ main.k .def_376)))
(let ((.def_378 (= .def_377 0)))
(let ((.def_295 (and .s.4.next .def_294)))
(let ((.def_296 (and .def_52 .def_295)))
(let ((.def_379 (and .def_296 .def_378)))
(let ((.def_380 (and .def_50 .def_379)))
(let ((.def_381 (and .def_47 .def_380)))
(let ((.def_382 (and .def_44 .def_381)))
(let ((.def_383 (and .def_38 .def_382)))
(let ((.def_384 (and .def_35 .def_383)))
(let ((.def_385 (and .def_32 .def_384)))
(let ((.def_386 (and .def_29 .def_385)))
(let ((.def_372 (and .s.4 .def_371)))
(let ((.def_373 (and .def_23 .def_372)))
(let ((.def_374 (not .def_373)))
(let ((.def_387 (or .def_374 .def_386)))
(let ((.def_722 (and .def_387 .def_721)))
(let ((.def_362 (and .def_50 .def_361)))
(let ((.def_363 (and .def_47 .def_362)))
(let ((.def_364 (and .def_44 .def_363)))
(let ((.def_365 (and .def_41 .def_364)))
(let ((.def_366 (and .def_38 .def_365)))
(let ((.def_367 (and .def_35 .def_366)))
(let ((.def_368 (and .def_32 .def_367)))
(let ((.def_369 (and .def_29 .def_368)))
(let ((.def_357 (and .s.4 .def_356)))
(let ((.def_358 (and .def_23 .def_357)))
(let ((.def_359 (not .def_358)))
(let ((.def_370 (or .def_359 .def_369)))
(let ((.def_723 (and .def_370 .def_722)))
(let ((.def_345 (and .s.4.next .def_344)))
(let ((.def_346 (and .def_52 .def_345)))
(let ((.def_347 (and .def_50 .def_346)))
(let ((.def_348 (and .def_47 .def_347)))
(let ((.def_349 (and .def_44 .def_348)))
(let ((.def_350 (and .def_41 .def_349)))
(let ((.def_351 (and .def_38 .def_350)))
(let ((.def_352 (and .def_35 .def_351)))
(let ((.def_353 (and .def_32 .def_352)))
(let ((.def_354 (and .def_29 .def_353)))
(let ((.def_326 (= main.v 1)))
(let ((.def_324 (and .s.4 .def_323)))
(let ((.def_325 (and .def_23 .def_324)))
(let ((.def_342 (and .def_325 .def_326)))
(let ((.def_343 (not .def_342)))
(let ((.def_355 (or .def_343 .def_354)))
(let ((.def_724 (and .def_355 .def_723)))
(let ((.def_331 (and .s.4.next .def_330)))
(let ((.def_332 (and .def_52 .def_331)))
(let ((.def_333 (and .def_50 .def_332)))
(let ((.def_334 (and .def_47 .def_333)))
(let ((.def_335 (and .def_44 .def_334)))
(let ((.def_336 (and .def_41 .def_335)))
(let ((.def_337 (and .def_38 .def_336)))
(let ((.def_338 (and .def_35 .def_337)))
(let ((.def_339 (and .def_32 .def_338)))
(let ((.def_340 (and .def_29 .def_339)))
(let ((.def_327 (not .def_326)))
(let ((.def_328 (and .def_325 .def_327)))
(let ((.def_329 (not .def_328)))
(let ((.def_341 (or .def_329 .def_340)))
(let ((.def_725 (and .def_341 .def_724)))
(let ((.def_123 (+ main.k .def_122)))
(let ((.def_312 (+ main.c2 .def_123)))
(let ((.def_313 (= .def_312 0)))
(let ((.def_259 (and .s.4.next .def_258)))
(let ((.def_260 (and .def_52 .def_259)))
(let ((.def_314 (and .def_260 .def_313)))
(let ((.def_315 (and .def_50 .def_314)))
(let ((.def_316 (and .def_47 .def_315)))
(let ((.def_317 (and .def_44 .def_316)))
(let ((.def_318 (and .def_38 .def_317)))
(let ((.def_319 (and .def_35 .def_318)))
(let ((.def_320 (and .def_32 .def_319)))
(let ((.def_321 (and .def_29 .def_320)))
(let ((.def_307 (and .s.4 .def_306)))
(let ((.def_308 (and .def_23 .def_307)))
(let ((.def_309 (not .def_308)))
(let ((.def_322 (or .def_309 .def_321)))
(let ((.def_726 (and .def_322 .def_725)))
(let ((.def_297 (and .def_50 .def_296)))
(let ((.def_298 (and .def_47 .def_297)))
(let ((.def_299 (and .def_44 .def_298)))
(let ((.def_300 (and .def_41 .def_299)))
(let ((.def_301 (and .def_38 .def_300)))
(let ((.def_302 (and .def_35 .def_301)))
(let ((.def_303 (and .def_32 .def_302)))
(let ((.def_304 (and .def_29 .def_303)))
(let ((.def_291 (and .s.4 .def_290)))
(let ((.def_292 (and .def_23 .def_291)))
(let ((.def_293 (not .def_292)))
(let ((.def_305 (or .def_293 .def_304)))
(let ((.def_727 (and .def_305 .def_726)))
(let ((.def_279 (and .s.4.next .def_278)))
(let ((.def_280 (and .def_52 .def_279)))
(let ((.def_276 (+ main.c3 .def_123)))
(let ((.def_277 (= .def_276 0)))
(let ((.def_281 (and .def_277 .def_280)))
(let ((.def_282 (and .def_50 .def_281)))
(let ((.def_283 (and .def_47 .def_282)))
(let ((.def_284 (and .def_44 .def_283)))
(let ((.def_285 (and .def_38 .def_284)))
(let ((.def_286 (and .def_35 .def_285)))
(let ((.def_287 (and .def_32 .def_286)))
(let ((.def_288 (and .def_29 .def_287)))
(let ((.def_271 (and .s.4 .def_270)))
(let ((.def_272 (and .def_23 .def_271)))
(let ((.def_273 (not .def_272)))
(let ((.def_289 (or .def_273 .def_288)))
(let ((.def_728 (and .def_289 .def_727)))
(let ((.def_261 (and .def_50 .def_260)))
(let ((.def_262 (and .def_47 .def_261)))
(let ((.def_263 (and .def_44 .def_262)))
(let ((.def_264 (and .def_41 .def_263)))
(let ((.def_265 (and .def_38 .def_264)))
(let ((.def_266 (and .def_35 .def_265)))
(let ((.def_267 (and .def_32 .def_266)))
(let ((.def_268 (and .def_29 .def_267)))
(let ((.def_255 (and .s.4 .def_254)))
(let ((.def_256 (and .def_23 .def_255)))
(let ((.def_257 (not .def_256)))
(let ((.def_269 (or .def_257 .def_268)))
(let ((.def_729 (and .def_269 .def_728)))
(let ((.def_244 (= main.j.next 0)))
(let ((.def_103 (and .s.4.next .def_102)))
(let ((.def_104 (and .def_52 .def_103)))
(let ((.def_245 (and .def_104 .def_244)))
(let ((.def_246 (and .def_50 .def_245)))
(let ((.def_247 (and .def_47 .def_246)))
(let ((.def_248 (and .def_41 .def_247)))
(let ((.def_249 (and .def_38 .def_248)))
(let ((.def_250 (and .def_35 .def_249)))
(let ((.def_251 (and .def_32 .def_250)))
(let ((.def_252 (and .def_29 .def_251)))
(let ((.def_241 (and .s.4 .def_240)))
(let ((.def_242 (and .def_23 .def_241)))
(let ((.def_243 (not .def_242)))
(let ((.def_253 (or .def_243 .def_252)))
(let ((.def_730 (and .def_253 .def_729)))
(let ((.def_229 (and .def_54 .def_228)))
(let ((.def_230 (and .s.5.next .def_229)))
(let ((.def_231 (and .def_50 .def_230)))
(let ((.def_232 (and .def_47 .def_231)))
(let ((.def_233 (and .def_44 .def_232)))
(let ((.def_234 (and .def_41 .def_233)))
(let ((.def_235 (and .def_38 .def_234)))
(let ((.def_236 (and .def_35 .def_235)))
(let ((.def_237 (and .def_32 .def_236)))
(let ((.def_238 (and .def_29 .def_237)))
(let ((.def_208 (<= main.n main.j)))
(let ((.def_206 (and .s.4 .def_205)))
(let ((.def_207 (and .def_23 .def_206)))
(let ((.def_225 (and .def_207 .def_208)))
(let ((.def_226 (not .def_225)))
(let ((.def_239 (or .def_226 .def_238)))
(let ((.def_731 (and .def_239 .def_730)))
(let ((.def_214 (and .s.4.next .def_213)))
(let ((.def_215 (and .def_52 .def_214)))
(let ((.def_216 (and .def_50 .def_215)))
(let ((.def_217 (and .def_47 .def_216)))
(let ((.def_218 (and .def_44 .def_217)))
(let ((.def_219 (and .def_41 .def_218)))
(let ((.def_220 (and .def_38 .def_219)))
(let ((.def_221 (and .def_35 .def_220)))
(let ((.def_222 (and .def_32 .def_221)))
(let ((.def_223 (and .def_29 .def_222)))
(let ((.def_209 (not .def_208)))
(let ((.def_210 (and .def_207 .def_209)))
(let ((.def_211 (not .def_210)))
(let ((.def_224 (or .def_211 .def_223)))
(let ((.def_732 (and .def_224 .def_731)))
(let ((.def_184 (<= main.k 0)))
(let ((.def_181 (and .s.4 .def_180)))
(let ((.def_182 (and .def_23 .def_181)))
(let ((.def_201 (and .def_182 .def_184)))
(let ((.def_202 (not .def_201)))
(let ((.def_84 (and .s.5.next .def_66)))
(let ((.def_85 (and .def_50 .def_84)))
(let ((.def_86 (and .def_47 .def_85)))
(let ((.def_87 (and .def_44 .def_86)))
(let ((.def_88 (and .def_41 .def_87)))
(let ((.def_89 (and .def_38 .def_88)))
(let ((.def_90 (and .def_35 .def_89)))
(let ((.def_91 (and .def_32 .def_90)))
(let ((.def_92 (and .def_29 .def_91)))
(let ((.def_203 (or .def_92 .def_202)))
(let ((.def_733 (and .def_203 .def_732)))
(let ((.def_190 (and .s.4.next .def_189)))
(let ((.def_191 (and .def_52 .def_190)))
(let ((.def_192 (and .def_50 .def_191)))
(let ((.def_193 (and .def_47 .def_192)))
(let ((.def_194 (and .def_44 .def_193)))
(let ((.def_195 (and .def_41 .def_194)))
(let ((.def_196 (and .def_38 .def_195)))
(let ((.def_197 (and .def_35 .def_196)))
(let ((.def_198 (and .def_32 .def_197)))
(let ((.def_199 (and .def_29 .def_198)))
(let ((.def_185 (not .def_184)))
(let ((.def_186 (and .def_182 .def_185)))
(let ((.def_187 (not .def_186)))
(let ((.def_200 (or .def_187 .def_199)))
(let ((.def_734 (and .def_200 .def_733)))
(let ((.def_168 (and .s.4.next .def_167)))
(let ((.def_169 (and .def_52 .def_168)))
(let ((.def_170 (and .def_50 .def_169)))
(let ((.def_171 (and .def_47 .def_170)))
(let ((.def_172 (and .def_44 .def_171)))
(let ((.def_173 (and .def_41 .def_172)))
(let ((.def_174 (and .def_38 .def_173)))
(let ((.def_175 (and .def_35 .def_174)))
(let ((.def_176 (and .def_32 .def_175)))
(let ((.def_177 (and .def_29 .def_176)))
(let ((.def_162 (and .s.4 .def_161)))
(let ((.def_163 (and .def_23 .def_162)))
(let ((.def_164 (not .def_163)))
(let ((.def_178 (or .def_164 .def_177)))
(let ((.def_735 (and .def_178 .def_734)))
(let ((.def_149 (and .s.4.next .def_148)))
(let ((.def_150 (and .def_52 .def_149)))
(let ((.def_144 (* (- 1) main.j.next)))
(let ((.def_145 (+ main.j .def_144)))
(let ((.def_146 (= .def_145 (- 1))))
(let ((.def_151 (and .def_146 .def_150)))
(let ((.def_152 (and .def_50 .def_151)))
(let ((.def_153 (and .def_47 .def_152)))
(let ((.def_154 (and .def_41 .def_153)))
(let ((.def_155 (and .def_38 .def_154)))
(let ((.def_156 (and .def_35 .def_155)))
(let ((.def_157 (and .def_32 .def_156)))
(let ((.def_158 (and .def_29 .def_157)))
(let ((.def_141 (and .s.4 .def_140)))
(let ((.def_142 (and .def_23 .def_141)))
(let ((.def_143 (not .def_142)))
(let ((.def_159 (or .def_143 .def_158)))
(let ((.def_736 (and .def_159 .def_735)))
(let ((.def_128 (and .s.4.next .def_127)))
(let ((.def_129 (and .def_52 .def_128)))
(let ((.def_124 (= .def_123 1)))
(let ((.def_130 (and .def_124 .def_129)))
(let ((.def_131 (and .def_50 .def_130)))
(let ((.def_132 (and .def_47 .def_131)))
(let ((.def_133 (and .def_44 .def_132)))
(let ((.def_134 (and .def_38 .def_133)))
(let ((.def_135 (and .def_35 .def_134)))
(let ((.def_136 (and .def_32 .def_135)))
(let ((.def_137 (and .def_29 .def_136)))
(let ((.def_117 (and .s.4 .def_116)))
(let ((.def_118 (and .def_23 .def_117)))
(let ((.def_119 (not .def_118)))
(let ((.def_138 (or .def_119 .def_137)))
(let ((.def_737 (and .def_138 .def_736)))
(let ((.def_105 (and .def_50 .def_104)))
(let ((.def_106 (and .def_47 .def_105)))
(let ((.def_107 (and .def_44 .def_106)))
(let ((.def_108 (and .def_41 .def_107)))
(let ((.def_109 (and .def_38 .def_108)))
(let ((.def_110 (and .def_35 .def_109)))
(let ((.def_111 (and .def_32 .def_110)))
(let ((.def_112 (and .def_29 .def_111)))
(let ((.def_97 (and .s.4 .def_96)))
(let ((.def_98 (and .def_23 .def_97)))
(let ((.def_99 (not .def_98)))
(let ((.def_113 (or .def_99 .def_112)))
(let ((.def_738 (and .def_113 .def_737)))
(let ((.def_82 (and .s.5 .def_81)))
(let ((.def_83 (not .def_82)))
(let ((.def_93 (or .def_83 .def_92)))
(let ((.def_739 (and .def_93 .def_738)))
(let ((.def_25 (and .def_21 .s.5)))
(let ((.def_26 (not .def_25)))
(let ((.def_76 (or .def_26 .def_75)))
(let ((.def_740 (and .def_76 .def_739)))
.def_740))))))))))))))))))))))))))))))))))))))))))))))))))))))))))))))))))))))))))))))))))))))))))))))))))))))))))))))))))))))))))))))))))))))))))))))))))))))))))))))))))))))))))))))))))))))))))))))))))))))))))))))))))))))))))))))))))))))))))))))))))))))))))))))))))))))))))))))))))))))))))))))))))))))))))))))))))))))))))))))))))))))))))))))))))))))))))))))))))))))))))))))))))))))))))))))))))))))))))))))))))))))))))))))))))))))))))))))))))))))))))))))))))))))))))))))))))))))))))))))))))))))))))))))))))))))))))))))))))))))))))))))))))))))))))))))))))))))))))))))))))))))))))))))))))))))))))))))))))))))))))))))))))))))))))))))))))))))))))))))))))))))))))))))))))))))))))))))))))))))))))))))))))) (state |.s.1.next| |.s.0.next| |.s.2.next| |.s.3.next| |.s.4.next| |.s.5.next| |main.n.next| |main.v.next| |main.c2.next| |main.c3.next| |main.k.next| |main.j.next| |main.c1.next| |main.i.next|))))
(assert (forall ((|.s.5| Bool) (|.s.4| Bool) (|.s.3| Bool) (|.s.2| Bool) (|.s.0| Bool) (|.s.1| Bool) (|.s.0.next| Bool) (|.s.1.next| Bool) (|.s.2.next| Bool) (|.s.3.next| Bool) (|.s.4.next| Bool) (|.s.5.next| Bool) (|main.i.next| Int) (|main.i| Int) (|main.c1.next| Int) (|main.c1| Int) (|main.j.next| Int) (|main.j| Int) (|main.k.next| Int) (|main.k| Int) (|main.c3.next| Int) (|main.c3| Int) (|main.c2.next| Int) (|main.c2| Int) (|main.v.next| Int) (|main.v| Int) (|main.n.next| Int) (|main.n| Int) (|.inputVar.0| Int)) (=> (state |.s.1| |.s.0| |.s.2| |.s.3| |.s.4| |.s.5| |main.n| |main.v| |main.c2| |main.c3| |main.k| |main.j| |main.c1| |main.i|) (let ((.def_77 (not .s.0)))
(let ((.def_10 (not .s.1)))
(let ((.def_78 (and .def_10 .def_77)))
(let ((.def_14 (not .s.2)))
(let ((.def_79 (and .def_14 .def_78)))
(let ((.def_17 (not .s.3)))
(let ((.def_80 (and .def_17 .def_79)))
(let ((.def_20 (not .s.4)))
(let ((.def_81 (and .def_20 .def_80)))
(let ((.def_82 (and .s.5 .def_81)))
(let ((.def_83 (not .def_82)))
.def_83))))))))))))))
(check-sat)
